c description: Random 3-CNF over 22 variables and 94 clauses
c generator: CNFgen (0.9.2)
c copyright: (C) 2012-2022 Massimo Lauria <massimo.lauria@uniroma1.it>
c url: https://massimolauria.net/cnfgen
c command line: cnfgen --output CNF_4.28/22_bit_94_402.cnf randkcnf 3 22 94
c
p cnf 22 94
-11 -19 -22 0
3 7 -13 0
4 7 8 0
-11 -17 -22 0
-9 18 20 0
12 -17 19 0
1 -8 14 0
-5 10 17 0
-6 8 -9 0
8 -9 21 0
-8 10 -13 0
5 -9 -19 0
3 10 13 0
5 -6 17 0
-5 8 -20 0
7 16 -19 0
-3 -6 10 0
7 8 22 0
-13 17 -21 0
6 7 -20 0
3 13 -21 0
-2 4 -10 0
9 -15 -20 0
-8 -9 -21 0
1 6 -17 0
-13 -14 -16 0
3 -6 14 0
4 12 13 0
-4 7 20 0
9 -13 -21 0
-9 -16 19 0
16 17 -18 0
5 -8 -9 0
5 15 16 0
-15 -19 -21 0
8 -20 -21 0
-6 -18 -20 0
5 7 16 0
5 14 -21 0
1 3 -12 0
-9 -20 -22 0
-10 -12 -15 0
1 2 5 0
-1 -11 12 0
-12 -18 22 0
-12 -17 -19 0
-8 -14 22 0
2 13 17 0
11 -20 21 0
10 12 -17 0
9 10 -17 0
-4 15 22 0
5 -9 -10 0
3 5 -10 0
-1 3 5 0
5 -6 19 0
5 9 22 0
-17 -19 20 0
4 11 16 0
-7 -13 -21 0
-6 -10 -22 0
1 -15 22 0
4 -6 -16 0
1 -12 20 0
-3 -14 -19 0
1 14 -20 0
13 18 -20 0
-3 -11 -14 0
-1 8 -21 0
-3 12 14 0
-8 -13 -16 0
13 -15 16 0
-2 6 8 0
10 -16 -19 0
-5 9 -13 0
-4 8 -12 0
-5 -12 13 0
17 -19 21 0
1 6 20 0
7 19 -22 0
11 -13 -19 0
-3 6 19 0
8 -12 17 0
14 -19 22 0
-1 18 -22 0
4 13 22 0
-2 20 21 0
8 -17 22 0
4 -7 15 0
9 -13 18 0
-9 17 -18 0
-5 11 -20 0
-9 -10 15 0
-8 13 -22 0
